40	100	100	100
22	54	100
72	5	100
3	5	100
84	69	100
79	4	100
62	69	100
99	80	100
95	49	100
25	63	100
75	30	100
6	95	100
3	14	100
69	5	100
7	89	100
25	61	100
62	60	100
34	64	100
3	43	100
12	4	100
57	35	100
26	52	100
20	15	100
77	35	100
63	96	100
13	11	100
63	29	100
36	95	100
17	76	100
90	84	100
5	24	100
54	32	100
91	41	100
77	63	100
66	21	100
85	97	100
19	33	100
2	26	100
5	98	100
98	86	100
36	22	100
